jobs  (incl. supersource/sink ):	102
RESOURCES
- renewable                 : 2 R
- nonrenewable              : 2 N
- doubly constrained        : 0 D
************************************************************************
PRECEDENCE RELATIONS:
jobnr.    #modes  #successors   successors
1	1	19		2 3 4 5 6 7 8 9 10 11 12 14 15 19 21 22 24 28 36 
2	3	11		48 47 41 40 38 37 34 33 27 23 18 
3	3	7		47 45 40 30 25 17 13 
4	3	10		57 52 48 46 40 35 27 23 20 17 
5	3	10		52 47 46 43 39 35 33 32 30 17 
6	3	14		59 55 51 50 48 47 46 45 40 38 35 32 29 27 
7	3	12		59 58 57 54 52 46 45 43 35 33 32 26 
8	3	8		57 52 46 39 37 35 23 20 
9	3	7		58 57 52 48 33 25 16 
10	3	11		59 52 50 46 41 40 37 35 32 27 26 
11	3	6		55 48 38 32 27 18 
12	3	11		62 59 56 52 46 45 40 37 32 31 26 
13	3	8		57 52 51 48 46 41 32 20 
14	3	11		62 61 52 51 50 47 46 44 43 37 25 
15	3	10		62 56 54 52 48 45 44 42 41 39 
16	3	8		73 59 55 51 46 45 35 32 
17	3	11		81 65 62 59 58 56 51 50 44 42 38 
18	3	9		79 60 58 57 52 51 46 39 35 
19	3	8		66 65 57 52 50 48 41 35 
20	3	14		101 79 73 65 63 62 61 60 59 58 55 54 44 43 
21	3	10		81 78 72 65 61 59 55 48 42 38 
22	3	9		73 62 61 59 56 51 46 44 40 
23	3	7		73 72 59 55 51 45 32 
24	3	15		81 80 79 78 72 66 65 62 61 60 56 55 52 51 47 
25	3	10		80 79 78 77 66 65 59 56 54 39 
26	3	9		79 78 77 65 55 51 48 42 39 
27	3	6		79 66 65 44 42 39 
28	3	8		81 79 61 59 55 50 46 42 
29	3	13		81 80 79 78 77 72 67 65 63 61 60 52 49 
30	3	9		81 80 79 65 59 57 54 51 50 
31	3	8		81 79 78 72 65 57 55 42 
32	3	7		81 80 78 77 66 61 42 
33	3	11		101 79 77 67 66 65 63 61 60 55 49 
34	3	11		101 81 80 77 72 67 65 62 61 54 49 
35	3	5		101 62 56 49 44 
36	3	12		101 81 80 79 78 76 73 68 67 65 60 53 
37	3	10		101 99 79 78 77 67 66 63 60 49 
38	3	12		101 99 79 77 76 73 68 67 66 60 54 53 
39	3	8		101 99 81 73 72 67 63 49 
40	3	10		96 80 79 76 72 68 67 65 60 53 
41	3	10		95 80 79 77 76 75 67 64 63 55 
42	3	6		101 99 67 63 60 49 
43	3	7		92 81 77 74 66 56 53 
44	3	18		99 98 95 94 91 87 86 85 84 80 78 77 76 75 74 72 69 68 
45	3	15		101 98 94 93 92 90 89 84 80 78 70 69 67 66 65 
46	3	11		101 100 94 91 78 75 70 68 66 65 64 
47	3	6		99 94 74 68 67 53 
48	3	5		100 99 96 60 53 
49	3	7		100 95 94 92 76 74 53 
50	3	6		99 95 92 78 76 53 
51	3	11		101 100 99 98 95 88 86 76 74 64 63 
52	3	11		101 97 95 91 76 74 73 71 70 68 64 
53	3	7		98 93 91 75 71 70 64 
54	3	16		100 98 96 95 94 93 91 90 88 87 86 85 84 83 82 75 
55	3	12		99 98 96 93 92 91 89 85 84 74 71 70 
56	3	12		99 98 97 96 94 93 85 84 83 82 71 67 
57	3	8		100 99 92 86 77 76 74 64 
58	3	11		94 92 90 89 88 87 86 85 84 77 69 
59	3	6		92 85 83 75 74 67 
60	3	8		98 95 94 91 86 84 74 69 
61	3	8		97 96 95 94 86 85 84 69 
62	3	6		96 94 92 91 84 69 
63	3	5		96 94 93 87 68 
64	3	4		89 85 84 69 
65	3	4		99 86 85 82 
66	3	4		95 88 85 82 
67	3	3		100 91 87 
68	3	3		92 90 89 
69	3	2		83 82 
70	3	2		87 86 
71	3	2		90 88 
72	3	2		89 88 
73	3	2		84 82 
74	3	1		82 
75	3	1		97 
76	3	1		93 
77	3	1		83 
78	3	1		96 
79	3	1		86 
80	3	1		82 
81	3	1		95 
82	3	1		102 
83	3	1		102 
84	3	1		102 
85	3	1		102 
86	3	1		102 
87	3	1		102 
88	3	1		102 
89	3	1		102 
90	3	1		102 
91	3	1		102 
92	3	1		102 
93	3	1		102 
94	3	1		102 
95	3	1		102 
96	3	1		102 
97	3	1		102 
98	3	1		102 
99	3	1		102 
100	3	1		102 
101	3	1		102 
102	1	0		
************************************************************************
REQUESTS/DURATIONS
jobnr.	mode	dur	R1	R2	N1	N2	
------------------------------------------------------------------------
1	1	0	0	0	0	0	
2	1	3	3	3	0	5	
	2	5	2	3	0	5	
	3	9	2	3	0	1	
3	1	1	2	2	0	9	
	2	1	2	2	2	0	
	3	10	2	2	0	5	
4	1	4	4	4	0	2	
	2	6	3	4	7	0	
	3	8	3	4	0	1	
5	1	1	5	5	0	5	
	2	5	4	3	0	4	
	3	9	3	3	0	4	
6	1	1	5	4	0	5	
	2	2	4	4	3	0	
	3	9	3	4	0	2	
7	1	6	5	3	0	4	
	2	8	4	3	0	2	
	3	10	4	3	0	1	
8	1	3	4	5	0	7	
	2	6	2	3	3	0	
	3	9	1	3	0	1	
9	1	4	4	2	6	0	
	2	9	3	2	6	0	
	3	10	2	2	5	0	
10	1	1	3	3	0	8	
	2	4	3	3	0	7	
	3	7	3	3	0	6	
11	1	5	3	4	0	10	
	2	6	1	4	1	0	
	3	8	1	4	0	9	
12	1	3	3	2	0	4	
	2	5	2	2	6	0	
	3	5	2	2	0	2	
13	1	1	3	5	2	0	
	2	7	3	5	1	0	
	3	10	1	5	0	5	
14	1	4	3	3	0	6	
	2	7	1	2	7	0	
	3	10	1	2	5	0	
15	1	5	5	2	0	9	
	2	8	5	1	5	0	
	3	9	5	1	0	6	
16	1	5	5	2	0	6	
	2	9	4	1	0	5	
	3	10	4	1	3	0	
17	1	1	3	2	8	0	
	2	7	1	2	8	0	
	3	10	1	1	0	2	
18	1	1	4	3	7	0	
	2	4	2	3	5	0	
	3	9	1	2	4	0	
19	1	1	4	3	2	0	
	2	2	4	2	1	0	
	3	10	4	2	0	4	
20	1	7	5	4	10	0	
	2	9	4	4	0	2	
	3	10	4	4	0	1	
21	1	3	4	4	1	0	
	2	3	4	2	0	6	
	3	4	4	2	0	4	
22	1	3	3	2	0	9	
	2	4	3	2	0	8	
	3	10	2	2	0	8	
23	1	1	4	4	0	8	
	2	9	2	3	2	0	
	3	9	1	2	0	5	
24	1	6	3	5	10	0	
	2	7	2	5	0	4	
	3	8	2	5	5	0	
25	1	5	3	1	4	0	
	2	8	3	1	2	0	
	3	10	3	1	0	3	
26	1	3	4	2	9	0	
	2	6	3	2	0	2	
	3	8	2	1	7	0	
27	1	5	5	4	0	9	
	2	6	5	3	3	0	
	3	10	5	2	0	5	
28	1	1	5	5	0	9	
	2	2	4	4	0	4	
	3	10	2	4	3	0	
29	1	2	3	4	3	0	
	2	4	2	3	1	0	
	3	5	2	2	1	0	
30	1	1	3	2	9	0	
	2	2	2	2	0	2	
	3	6	2	2	0	1	
31	1	1	4	4	3	0	
	2	8	4	4	0	3	
	3	8	4	2	1	0	
32	1	2	3	5	0	7	
	2	4	3	3	0	4	
	3	5	3	2	0	4	
33	1	5	2	4	6	0	
	2	7	1	4	5	0	
	3	8	1	3	3	0	
34	1	1	1	2	2	0	
	2	3	1	2	0	3	
	3	10	1	2	1	0	
35	1	3	3	2	0	8	
	2	8	3	2	3	0	
	3	9	2	2	1	0	
36	1	4	1	3	3	0	
	2	10	1	1	0	7	
	3	10	1	1	1	0	
37	1	1	2	2	0	9	
	2	3	2	2	0	8	
	3	5	2	1	0	9	
38	1	3	2	4	3	0	
	2	5	2	2	2	0	
	3	7	1	1	0	6	
39	1	3	5	5	1	0	
	2	5	4	3	0	4	
	3	7	3	2	0	3	
40	1	3	4	4	3	0	
	2	9	2	2	1	0	
	3	10	2	2	0	1	
41	1	3	4	3	10	0	
	2	7	4	3	0	4	
	3	9	4	3	0	3	
42	1	3	4	2	8	0	
	2	3	4	1	0	5	
	3	6	3	1	0	3	
43	1	4	4	1	0	8	
	2	6	4	1	0	6	
	3	10	4	1	0	3	
44	1	2	4	4	0	4	
	2	2	4	3	6	0	
	3	7	4	3	0	2	
45	1	1	5	5	10	0	
	2	4	4	4	9	0	
	3	10	4	4	8	0	
46	1	6	5	1	0	7	
	2	8	4	1	0	6	
	3	9	3	1	0	5	
47	1	5	4	2	0	5	
	2	7	3	2	7	0	
	3	8	2	2	3	0	
48	1	2	4	3	3	0	
	2	5	2	3	0	4	
	3	10	2	3	1	0	
49	1	2	3	4	0	2	
	2	6	2	4	0	2	
	3	10	2	4	0	1	
50	1	2	3	1	0	9	
	2	8	3	1	0	4	
	3	10	3	1	3	0	
51	1	3	4	5	7	0	
	2	5	2	4	3	0	
	3	8	2	2	2	0	
52	1	1	5	3	0	9	
	2	5	4	2	3	0	
	3	8	4	1	3	0	
53	1	2	4	5	5	0	
	2	6	4	5	4	0	
	3	10	4	5	3	0	
54	1	1	3	5	10	0	
	2	5	3	5	8	0	
	3	7	3	5	0	3	
55	1	1	5	3	0	4	
	2	4	5	2	9	0	
	3	5	5	1	7	0	
56	1	1	2	4	0	9	
	2	3	2	4	0	8	
	3	8	2	2	0	7	
57	1	4	3	2	0	5	
	2	5	3	2	0	4	
	3	7	3	2	5	0	
58	1	8	3	3	0	9	
	2	9	2	2	3	0	
	3	10	2	2	1	0	
59	1	1	4	3	2	0	
	2	3	4	3	1	0	
	3	7	3	3	0	9	
60	1	1	3	5	0	6	
	2	3	1	4	0	6	
	3	7	1	3	0	5	
61	1	2	4	4	0	6	
	2	3	3	3	0	5	
	3	8	3	3	2	0	
62	1	2	4	4	0	7	
	2	3	3	2	0	7	
	3	5	1	2	5	0	
63	1	4	4	3	8	0	
	2	9	4	3	0	4	
	3	10	3	3	8	0	
64	1	1	5	4	0	6	
	2	7	4	2	7	0	
	3	9	4	2	0	1	
65	1	2	3	3	0	6	
	2	6	3	2	0	2	
	3	9	3	2	0	1	
66	1	1	2	2	7	0	
	2	3	2	2	0	6	
	3	8	2	2	2	0	
67	1	1	3	4	7	0	
	2	2	2	3	5	0	
	3	7	2	3	4	0	
68	1	5	3	2	5	0	
	2	6	2	2	4	0	
	3	9	2	1	3	0	
69	1	2	4	5	5	0	
	2	2	4	3	0	3	
	3	4	4	3	0	2	
70	1	4	3	3	0	3	
	2	5	3	3	4	0	
	3	7	3	3	0	2	
71	1	3	3	5	8	0	
	2	5	3	4	7	0	
	3	10	2	3	5	0	
72	1	1	3	2	0	9	
	2	4	2	2	0	7	
	3	9	2	2	0	6	
73	1	7	4	4	0	6	
	2	7	2	3	9	0	
	3	10	2	3	0	4	
74	1	6	3	5	0	2	
	2	7	1	4	3	0	
	3	9	1	3	0	1	
75	1	1	3	4	5	0	
	2	2	3	3	5	0	
	3	7	3	3	4	0	
76	1	4	5	2	7	0	
	2	5	4	2	5	0	
	3	8	4	2	3	0	
77	1	2	3	4	0	8	
	2	6	3	4	5	0	
	3	8	3	4	4	0	
78	1	2	5	3	0	10	
	2	5	4	3	4	0	
	3	10	4	1	0	4	
79	1	2	4	2	9	0	
	2	3	2	1	5	0	
	3	4	2	1	4	0	
80	1	6	1	3	5	0	
	2	8	1	3	3	0	
	3	9	1	3	1	0	
81	1	3	4	5	7	0	
	2	9	4	4	0	3	
	3	10	4	3	5	0	
82	1	1	5	4	9	0	
	2	8	3	4	9	0	
	3	10	3	4	8	0	
83	1	7	2	4	0	8	
	2	9	1	3	2	0	
	3	10	1	3	1	0	
84	1	2	2	2	9	0	
	2	5	2	2	8	0	
	3	8	2	2	0	1	
85	1	1	1	5	4	0	
	2	7	1	4	2	0	
	3	8	1	4	0	5	
86	1	5	3	4	0	9	
	2	7	2	3	8	0	
	3	9	2	2	0	9	
87	1	7	4	4	9	0	
	2	8	3	3	8	0	
	3	9	1	3	8	0	
88	1	4	4	4	0	4	
	2	7	2	4	7	0	
	3	10	1	3	0	1	
89	1	1	3	5	6	0	
	2	6	3	5	0	5	
	3	9	3	5	0	2	
90	1	7	5	4	0	2	
	2	7	5	2	4	0	
	3	8	5	2	3	0	
91	1	6	4	5	5	0	
	2	8	4	4	4	0	
	3	9	4	4	0	3	
92	1	8	2	4	8	0	
	2	8	2	4	0	3	
	3	9	2	4	0	2	
93	1	2	3	5	10	0	
	2	3	2	4	9	0	
	3	8	2	4	0	4	
94	1	3	2	2	7	0	
	2	6	2	1	4	0	
	3	10	2	1	0	9	
95	1	3	5	3	1	0	
	2	5	3	3	0	5	
	3	9	2	1	0	5	
96	1	3	3	1	0	4	
	2	4	2	1	3	0	
	3	10	1	1	2	0	
97	1	2	4	3	0	9	
	2	5	4	3	3	0	
	3	8	4	2	0	3	
98	1	4	5	3	0	10	
	2	5	3	3	4	0	
	3	6	2	3	2	0	
99	1	4	5	5	4	0	
	2	8	4	4	2	0	
	3	9	3	4	2	0	
100	1	3	5	1	0	2	
	2	8	2	1	0	2	
	3	9	2	1	0	1	
101	1	1	4	2	6	0	
	2	5	4	1	5	0	
	3	6	3	1	5	0	
102	1	0	0	0	0	0	
************************************************************************

 RESOURCE AVAILABILITIES 
	R 1	R 2	N 1	N 2
	21	19	165	161

************************************************************************
